NAME: clu_25_1
TYPE: TSP
DIMENSION: 25
EDGE_WEIGHT_TYPE: EUC_2D
NODE_COORD_SECTION
1 66 3
2 4 103
3 13 105
4 12 99
5 25 64
6 34 18
7 74 10
8 13 24
9 17 114
10 67 3
11 101 -7
12 99 0
13 68 17
14 101 -1
15 61 -3
16 87 17
17 3 91
18 16 82
19 28 68
20 1 41
21 12 78
22 62 17
23 13 31
24 15 11
25 12 78
EOF
